
(set-logic HORN)
(define-fun Z_31 () Int 0)
(define-fun S_10 ((x Int)) Int (+ x 1))
(define-fun Z_28 () Int 0)
(define-fun S_9 ((x Int)) Int (+ x 1))
(declare-fun diseqInt (Int Int) Bool)
(declare-fun unS_11 (Int Int) Bool)
(declare-fun isZ_10 (Int) Bool)
(declare-fun isS_10 (Int) Bool)
(assert (forall ((x_363 Int))
	(unS_11 x_363 (S_10 x_363))))
(assert (isZ_10 Z_31))
(assert (forall ((x_365 Int))
	(isS_10 (S_10 x_365))))
(assert (forall ((x_366 Int))
	(diseqInt Z_31 (S_10 x_366))))
(assert (forall ((x_367 Int))
	(diseqInt (S_10 x_367) Z_31)))
(assert (forall ((x_368 Int) (x_369 Int))
	(=> (diseqInt x_368 x_369) (diseqInt (S_10 x_368) (S_10 x_369)))))
(declare-fun add_5 (Int Int Int) Bool)
(declare-fun minus_5 (Int Int Int) Bool)
(declare-fun le_5 (Int Int) Bool)
(declare-fun ge_5 (Int Int) Bool)
(declare-fun lt_5 (Int Int) Bool)
(declare-fun gt_5 (Int Int) Bool)
(declare-fun mult_5 (Int Int Int) Bool)
(declare-fun div_5 (Int Int Int) Bool)
(declare-fun mod_5 (Int Int Int) Bool)
(assert (forall ((y_27 Int))
	(add_5 y_27 Z_31 y_27)))
(assert (forall ((x_339 Int) (y_27 Int) (r_5 Int))
	(=> (add_5 r_5 x_339 y_27) (add_5 (S_10 r_5) (S_10 x_339) y_27))))
(assert (forall ((y_27 Int))
	(minus_5 Z_31 Z_31 y_27)))
(assert (forall ((x_339 Int) (y_27 Int) (r_5 Int))
	(=> (minus_5 r_5 x_339 y_27) (minus_5 (S_10 r_5) (S_10 x_339) y_27))))
(assert (forall ((y_27 Int))
	(le_5 Z_31 y_27)))
(assert (forall ((x_339 Int) (y_27 Int))
	(=> (le_5 x_339 y_27) (le_5 (S_10 x_339) (S_10 y_27)))))
(assert (forall ((y_27 Int))
	(ge_5 y_27 Z_31)))
(assert (forall ((x_339 Int) (y_27 Int))
	(=> (ge_5 x_339 y_27) (ge_5 (S_10 x_339) (S_10 y_27)))))
(assert (forall ((y_27 Int))
	(lt_5 Z_31 (S_10 y_27))))
(assert (forall ((x_339 Int) (y_27 Int))
	(=> (lt_5 x_339 y_27) (lt_5 (S_10 x_339) (S_10 y_27)))))
(assert (forall ((y_27 Int))
	(gt_5 (S_10 y_27) Z_31)))
(assert (forall ((x_339 Int) (y_27 Int))
	(=> (gt_5 x_339 y_27) (gt_5 (S_10 x_339) (S_10 y_27)))))
(assert (forall ((y_27 Int))
	(mult_5 Z_31 Z_31 y_27)))
(assert (forall ((x_339 Int) (y_27 Int) (r_5 Int) (z_32 Int))
	(=> (and (mult_5 r_5 x_339 y_27) (add_5 z_32 r_5 y_27)) (mult_5 z_32 (S_10 x_339) y_27))))
(assert (forall ((x_339 Int) (y_27 Int))
	(=> (lt_5 x_339 y_27) (div_5 Z_31 x_339 y_27))))
(assert (forall ((x_339 Int) (y_27 Int) (r_5 Int) (z_32 Int))
	(=> (and (ge_5 x_339 y_27) (minus_5 z_32 x_339 y_27) (div_5 r_5 z_32 y_27)) (div_5 (S_10 r_5) x_339 y_27))))
(assert (forall ((x_339 Int) (y_27 Int))
	(=> (lt_5 x_339 y_27) (mod_5 x_339 x_339 y_27))))
(assert (forall ((x_339 Int) (y_27 Int) (r_5 Int) (z_32 Int))
	(=> (and (ge_5 x_339 y_27) (minus_5 z_32 x_339 y_27) (mod_5 r_5 z_32 y_27)) (mod_5 r_5 x_339 y_27))))
(declare-datatypes ((list_7 0)) (((nil_7) (cons_7 (head_14 Int) (tail_14 list_7)))))
(declare-fun diseqlist_7 (list_7 list_7) Bool)
(declare-fun head_15 (Int list_7) Bool)
(declare-fun tail_15 (list_7 list_7) Bool)
(declare-fun isnil_7 (list_7) Bool)
(declare-fun iscons_7 (list_7) Bool)
(assert (forall ((x_341 Int) (x_342 list_7))
	(head_15 x_341 (cons_7 x_341 x_342))))
(assert (forall ((x_341 Int) (x_342 list_7))
	(tail_15 x_342 (cons_7 x_341 x_342))))
(assert (isnil_7 nil_7))
(assert (forall ((x_344 Int) (x_345 list_7))
	(iscons_7 (cons_7 x_344 x_345))))
(assert (forall ((x_346 Int) (x_347 list_7))
	(diseqlist_7 nil_7 (cons_7 x_346 x_347))))
(assert (forall ((x_348 Int) (x_349 list_7))
	(diseqlist_7 (cons_7 x_348 x_349) nil_7)))
(assert (forall ((x_350 Int) (x_351 list_7) (x_352 Int) (x_353 list_7))
	(=> (diseqInt x_350 x_352) (diseqlist_7 (cons_7 x_350 x_351) (cons_7 x_352 x_353)))))
(assert (forall ((x_350 Int) (x_351 list_7) (x_352 Int) (x_353 list_7))
	(=> (diseqlist_7 x_351 x_353) (diseqlist_7 (cons_7 x_350 x_351) (cons_7 x_352 x_353)))))
(declare-fun diseqInt (Int Int) Bool)
(declare-fun projS_9 (Int Int) Bool)
(declare-fun isZ_9 (Int) Bool)
(declare-fun isS_9 (Int) Bool)
(assert (forall ((x_355 Int))
	(projS_9 x_355 (S_9 x_355))))
(assert (isZ_9 Z_28))
(assert (forall ((x_357 Int))
	(isS_9 (S_9 x_357))))
(assert (forall ((x_358 Int))
	(diseqInt Z_28 (S_9 x_358))))
(assert (forall ((x_359 Int))
	(diseqInt (S_9 x_359) Z_28)))
(assert (forall ((x_360 Int) (x_361 Int))
	(=> (diseqInt x_360 x_361) (diseqInt (S_9 x_360) (S_9 x_361)))))
(declare-fun len_1 (Int list_7) Bool)
(assert (forall ((x_325 Int) (y_24 Int) (xs_11 list_7))
	(=> (len_1 x_325 xs_11) (len_1 (S_9 x_325) (cons_7 y_24 xs_11)))))
(assert (len_1 Z_28 nil_7))
(declare-fun drop_1 (list_7 Int list_7) Bool)
(assert (forall ((x_327 list_7) (x_319 Int) (x_320 list_7) (z_29 Int))
	(=> (drop_1 x_327 z_29 x_320) (drop_1 x_327 (S_9 z_29) (cons_7 x_319 x_320)))))
(assert (forall ((z_29 Int))
	(drop_1 nil_7 (S_9 z_29) nil_7)))
(assert (forall ((x_330 list_7))
	(drop_1 x_330 Z_28 x_330)))
(declare-fun x_321 (Int Int Int) Bool)
(assert (forall ((x_331 Int) (x_323 Int) (z_30 Int))
	(=> (x_321 x_331 z_30 x_323) (x_321 x_331 (S_9 z_30) (S_9 x_323)))))
(assert (forall ((z_30 Int))
	(x_321 (S_9 z_30) (S_9 z_30) Z_28)))
(assert (forall ((y_26 Int))
	(x_321 Z_28 Z_28 y_26)))
(assert (forall ((x_335 list_7) (x_336 Int) (x_337 Int) (x_338 Int) (n_0 Int) (xs_12 list_7))
	(=> (and true (diseqInt x_336 x_338) (drop_1 x_335 n_0 xs_12) (len_1 x_336 x_335) (len_1 x_337 xs_12) (x_321 x_338 x_337 n_0)) false)))
(check-sat)
